<number of tasks>
50

<cycle time>
1000

<order strength>
0.195


<task times>
1 104
2 119
3 33
4 99
5 87
6 134
7 209
8 23
9 42
10 47
11 64
12 31
13 200
14 234
15 23
16 220
17 45
18 148
19 32
20 114
21 80
22 222
23 70
24 113
25 175
26 22
27 114
28 45
29 190
30 96
31 68
32 38
33 94
34 100
35 22
36 61
37 142
38 196
39 26
40 71
41 152
42 224
43 75
44 93
45 191
46 329
47 263
48 171
49 100
50 34

<precedence relations>
1,10
2,10
3,10
4,10
5,11
5,17
6,12
6,15
6,16
6,18
7,13
7,14
7,18
7,35
7,41
8,27
10,19
10,20
10,21
10,22
10,23
11,24
12,25
13,26
15,27
18,38
18,50
19,29
19,34
20,35
22,32
23,31
23,32
24,28
25,30
26,30
27,33
28,37
29,36
31,43
34,38
35,38
35,50
36,39
37,41
37,49
38,40
39,42
39,44
39,45
39,46
41,43
41,47
42,48
46,49
46,50

<end>
